Solver command line: ['C:\\Program Files\\IBM\\ILOG\\CPLEX_Studio2211\\cplex\\bin\\x64_win64\\cplex.exe']


Welcome to IBM(R) ILOG(R) CPLEX(R) Interactive Optimizer 22.1.1.0
  with Simplex, Mixed Integer & Barrier Optimizers
5725-A06 5725-A29 5724-Y48 5724-Y49 5724-Y54 5724-Y55 5655-Y21
Copyright IBM Corp. 1988, 2022.  All Rights Reserved.

Type 'help' for a list of available commands.
Type 'help' followed by a command name for more
information on commands.

CPLEX> Logfile 'cplex.log' closed.
Logfile 'C:\Users\wangy\Documents\GitHub\re_optimization\result_site_specific\tmpq3adbms3.cplex.log' open.
CPLEX> Problem 'C:\Users\wangy\Documents\GitHub\re_optimization\result_site_specific\tmplgktzusu.pyomo.lp' read.
Read time = 0.30 sec. (9.13 ticks)
CPLEX> Problem name         : C:\Users\wangy\Documents\GitHub\re_optimization\result_site_specific\tmplgktzusu.pyomo.lp
Objective sense      : Minimize
Variables            :   65769  [Nneg: 35068,  Free: 8792,  Binary: 9,
                                 Other: 21900]
Objective nonzeros   :      17
Linear constraints   :   87665  [Less: 46741,  Greater: 5,  Equal: 40919]
  Nonzeros           :  225051
  RHS nonzeros       :    3744

Variables            : Min LB: 0.000000         Max UB: 1.000000       
Objective nonzeros   : Min   : 1.000000         Max   : 1.000000       
Linear constraints   :
  Nonzeros           : Min   : 0.001502114      Max   : 100000.0       
  RHS nonzeros       : Min   : 0.04100000       Max   : 100000.0       
CPLEX> Version identifier: 22.1.1.0 | 2022-11-27 | 9160aff4d
Tried aggregator 3 times.
MIP Presolve eliminated 52788 rows and 32346 columns.
Aggregator did 10259 substitutions.
Reduced MIP has 24618 rows, 23164 columns, and 73711 nonzeros.
Reduced MIP has 5 binaries, 0 generals, 0 SOSs, and 0 indicators.
Presolve time = 0.20 sec. (225.07 ticks)
Found incumbent of value 255455.948006 after 0.28 sec. (331.14 ticks)
Probing time = 0.01 sec. (1.39 ticks)
Tried aggregator 1 time.
Detecting symmetries...
Reduced MIP has 24618 rows, 23164 columns, and 73711 nonzeros.
Reduced MIP has 5 binaries, 0 generals, 0 SOSs, and 0 indicators.
Presolve time = 0.05 sec. (47.19 ticks)
Probing time = 0.00 sec. (1.27 ticks)
MIP emphasis: balance optimality and feasibility.
MIP search method: dynamic search.
Parallel mode: deterministic, using up to 16 threads.
Root relaxation solution time = 1.12 sec. (815.44 ticks)

        Nodes                                         Cuts/
   Node  Left     Objective  IInf  Best Integer    Best Bound    ItCnt     Gap

*     0+    0                       255455.9480    -5443.2467           102.13%
      0     0     6975.9726     1   255455.9480     6975.9726       58   97.27%
*     0+    0                         8580.7179     6975.9726            18.70%
*     0+    0                         7300.7530     6975.9726             4.45%
      0     0        cutoff           7300.7530                    868    0.00%
Elapsed time = 1.86 sec. (1807.49 ticks, tree = 0.01 MB, solutions = 3)

Root node processing (before b&c):
  Real time             =    1.88 sec. (1810.68 ticks)
Parallel b&c, 16 threads:
  Real time             =    0.00 sec. (0.00 ticks)
  Sync time (average)   =    0.00 sec.
  Wait time (average)   =    0.00 sec.
                          ------------
Total (root+branch&cut) =    1.88 sec. (1810.68 ticks)

Solution pool: 3 solutions saved.

MIP - Integer optimal solution:  Objective =  7.3007530337e+03
Solution time =    1.88 sec.  Iterations = 868  Nodes = 0
Deterministic time = 1810.87 ticks  (965.80 ticks/sec)

CPLEX> Incumbent solution written to file 'C:\Users\wangy\Documents\GitHub\re_optimization\result_site_specific\tmpxupiy35s.cplex.sol'.
CPLEX> 
